
Gurobi 13.0.2 (win64) logging started Thu Jul 23 12:22:04 2026

Set parameter LogFile to value "E:\codes\ExactEBRP\results\gf_gurobi_performance_recovery_round29\development\V12_M2__c3_replica__60s\external\native_logs\R.1.0.0.1.0.1.0.1.1.0_terminal_mip.gurobi.log"
Gurobi Optimizer version 13.0.2 build v13.0.2rc1 (win64 - Windows 10.0 (19045.2))

CPU model: 12th Gen Intel(R) Core(TM) i7-12700KF, instruction set [SSE2|AVX|AVX2]
Thread count: 12 physical cores, 20 logical processors, using up to 1 threads

Non-default parameters:
TimeLimit  16.1561289
MIPGap  0
MIPGapAbs  0
LogToConsole  0
Threads  1

Optimize a model with 11351 rows, 1034 columns and 113600 nonzeros (Min)
Model fingerprint: 0x5bab16c8
Model has 13 linear objective coefficients
Variable types: 516 continuous, 518 integer (434 binary)
Coefficient statistics:
  Matrix range     [5e-05, 1e+05]
  Objective range  [5e-05, 1e+00]
  Bounds range     [4e-01, 3e+02]
  RHS range        [2e-01, 1e+06]

Presolve removed 1183 rows and 33 columns
Presolve time: 0.26s
Presolved: 10168 rows, 1001 columns, 134232 nonzeros
Variable types: 487 continuous, 514 integer (430 binary)
Root relaxation presolved: 10129 rows, 978 columns, 134145 nonzeros


Root relaxation: objective 6.520292e-01, 1357 iterations, 0.16 seconds (0.48 work units)

    Nodes    |    Current Node    |     Objective Bounds      |     Work
 Expl Unexpl |  Obj  Depth IntInf | Incumbent    BestBd   Gap | It/Node Time

     0     0    0.65203    0  137          -    0.65203      -     -    0s
     0     0 infeasible    0               - infeasible      -     -    0s

Cutting planes:
  Learned: 1
  Gomory: 9
  Cover: 14
  Implied bound: 79
  Clique: 6
  MIR: 80
  StrongCG: 5
  Flow cover: 24
  GUB cover: 1
  Zero half: 1
  Network: 10
  RLT: 12
  Relax-and-lift: 14
  BQP: 17
  PSD: 1

Explored 1 nodes (1778 simplex iterations) in 0.98 seconds (1.68 work units)
Thread count was 1 (of 20 available processors)

Solution count 0

Model is infeasible
Best objective -, best bound -, gap -

User-callback calls 911, time in user-callback 0.00 sec
